NAME:dantzig42_hard
COMMENT: From "On the generation of Metric TSP instances with a large integrality gap by branch-and-cut" (Vercesi, Gualandi, Mastrolilli, Gambardella) - https://arxiv.org/abs/2109.02454
TYPE: TSP
DIMENSION: 42
EDGE_WEIGHT_TYPE: EXPLICIT
EDGE_WEIGHT_FORMAT: UPPER_ROW
EDGE_WEIGHT_SECTION:
1 2 3 4 5 6 7 8 9 32 31 126 174 229 283 174 146 119 91 64 49 48 29 30 36 37 15 14 13 12 11 10 9 8 7 6 5 4 3 2 1 1 2 3 4 5 6 7 8 31 30 125 175 230 284 175 147 120 92 65 50 49 28 29 37 38 16 15 14 13 12 11 10 9 8 7 6 5 4 3 2 1 2 3 4 5 6 7 30 29 124 176 231 285 176 148 121 93 66 51 50 27 28 38 39 17 16 15 14 13 12 11 10 9 8 7 6 5 4 3 1 2 3 4 5 6 29 28 123 177 232 286 177 149 122 94 67 52 51 26 27 39 40 18 17 16 15 14 13 12 11 10 9 8 7 6 5 4 1 2 3 4 5 28 27 124 178 233 287 178 150 123 95 68 51 50 25 26 40 41 19 18 17 16 15 14 13 12 11 10 9 8 7 6 5 1 2 3 4 27 26 125 179 234 288 179 151 124 96 69 50 49 24 25 41 42 20 19 18 17 16 15 14 13 12 11 10 9 8 7 6 1 2 3 26 25 126 180 235 289 180 152 125 97 70 49 48 23 24 42 43 21 20 19 18 17 16 15 14 13 12 11 10 9 8 7 1 2 25 24 127 181 236 290 181 153 126 98 71 48 47 22 23 43 43 22 21 20 19 18 17 16 15 14 13 12 11 10 9 8 1 24 23 128 182 237 291 182 154 127 99 72 47 46 23 22 44 44 23 22 21 20 19 18 17 16 15 14 13 12 11 10 9 23 22 127 181 236 290 182 153 126 98 72 46 45 22 21 43 43 24 23 22 21 20 19 18 17 16 15 14 13 12 11 10 1 106 160 214 267 160 131 104 77 52 23 22 42 43 64 63 47 46 45 44 43 42 41 40 39 38 37 36 35 34 33 105 159 214 268 161 131 104 76 51 24 23 43 43 64 63 46 45 44 43 42 41 40 39 38 37 36 35 34 33 32 54 109 273 164 192 165 137 140 111 110 148 147 153 152 139 140 139 138 137 136 135 134 133 132 131 130 129 128 127 55 219 218 138 111 109 136 165 164 201 201 205 206 185 184 183 184 183 182 181 180 179 178 177 176 175 174 173 164 273 83 110 138 165 194 193 256 256 234 235 214 215 216 217 218 219 220 221 222 223 224 225 226 227 228 109 137 164 192 219 248 247 309 310 288 289 268 269 270 271 272 273 274 275 276 277 278 279 280 281 282 246 219 195 168 139 138 202 203 183 182 165 164 163 162 163 164 165 166 167 168 169 170 171 172 173 27 55 82 111 110 173 173 151 152 131 132 133 134 135 136 137 138 139 140 141 142 143 144 145 28 55 84 83 146 146 124 125 104 105 106 107 108 109 110 111 112 113 114 115 116 117 118 27 56 57 118 118 96 97 76 77 78 79 80 81 82 83 84 85 86 87 88 89 90 29 30 91 91 69 70 49 50 51 52 53 54 55 56 57 58 59 60 61 62 63 1 63 64 44 43 34 35 36 37 38 39 40 41 42 43 44 45 46 47 48 64 65 45 44 33 34 35 36 37 38 39 40 41 42 43 44 45 46 47 1 22 21 43 43 42 41 40 39 38 37 36 35 34 33 32 31 30 22 22 43 44 43 42 41 40 39 38 37 36 35 34 33 32 31 1 21 22 23 24 25 26 27 28 29 30 31 32 33 34 35 22 23 24 25 26 27 28 29 30 31 32 33 34 35 36 1 2 3 4 5 6 7 8 9 10 11 12 13 14 1 2 3 4 5 6 7 8 9 10 11 12 13 1 2 3 4 5 6 7 8 9 10 11 12 1 2 3 4 5 6 7 8 9 10 11 1 2 3 4 5 6 7 8 9 10 1 2 3 4 5 6 7 8 9 1 2 3 4 5 6 7 8 1 2 3 4 5 6 7 1 2 3 4 5 6 1 2 3 4 5 1 2 3 4 1 2 3 1 2 1 
EOF
